(set-info :status unknown)
(declare-fun %Y () (_ BitVec 46))
(declare-fun %X () (_ BitVec 46))
(assert
 (let (($x22669 (and (distinct (bvurem ((_ zero_extend 3) %X) ((_ zero_extend 3) %Y)) ((_ zero_extend 3) (bvurem %X %Y))) true)))
 (and (and (distinct ((_ zero_extend 3) %Y) (_ bv0 49)) true) $x22669)))
(check-sat)
